<instance format="XCSP3" type="CSP">
  <variables>
    <array id="x" note="Variables : x[i][j] est la valeur de la case (i, j) avec des valeurs possibles de 1 à 9" size="[9][9]"> 1..9 </array>
  </variables>
  <constraints>
    <group>
      <allDifferent> %... </allDifferent>
      <args> x[0][] </args>
      <args> x[1][] </args>
      <args> x[2][] </args>
      <args> x[3][] </args>
      <args> x[4][] </args>
      <args> x[5][] </args>
      <args> x[6][] </args>
      <args> x[7][] </args>
      <args> x[8][] </args>
    </group>
    <group note="Contraintes : chaque colonne doit contenir tous les chiffres de 1 à 9">
      <allDifferent> %... </allDifferent>
      <args> x[][0] </args>
      <args> x[][1] </args>
      <args> x[][2] </args>
      <args> x[][3] </args>
      <args> x[][4] </args>
      <args> x[][5] </args>
      <args> x[][6] </args>
      <args> x[][7] </args>
      <args> x[][8] </args>
    </group>
    <group note="Contraintes : chaque bloc 3x3 doit contenir tous les chiffres de 1 à 9">
      <allDifferent> %... </allDifferent>
      <args> x[0..2][0..2] </args>
      <args> x[0..2][3..5] </args>
      <args> x[0..2][6..8] </args>
      <args> x[3..5][0..2] </args>
      <args> x[3..5][3..5] </args>
      <args> x[3..5][6..8] </args>
      <args> x[6..8][0..2] </args>
      <args> x[6..8][3..5] </args>
      <args> x[6..8][6..8] </args>
    </group>
    <instantiation note="Contraintes : les valeurs déjà placées doivent être respectées">
      <list> x[0][0..1] x[0][4] x[1][0] x[1][3..5] x[2][1..2] x[2][7] x[3][0] x[3][4] x[3][8] x[4][0] x[4][3] x[4][5] x[4][8] x[5][0] x[5][4] x[5][8] x[6][1] x[6][6..7] x[7][3..5] x[7][8] x[8][4] x[8][7..8] </list>
      <values> 5 3 7 6 1 9 5 9 8 6 8 6 3 4 8 3 1 7 2 6 6 2 8 4 1 9 5 8 7 9 </values>
    </instantiation>
  </constraints>
</instance>
